(declare-fun var0 () String)
(declare-fun var1 () String)
(declare-fun var2 () String)
(declare-fun var3 () String)
(declare-fun var4 () String)
(declare-fun var5 () String)
(declare-fun var6 () String)
(declare-fun var7 () String)
(declare-fun var8 () String)
(declare-fun var9 () String)
(declare-fun var10 () String)
(declare-fun var11 () String)
(declare-fun var12 () String)
(declare-fun var13 () String)
(declare-fun var14 () String)
(declare-fun var15 () String)
(declare-fun var16 () String)
(declare-fun var17 () String)
(declare-fun var18 () String)
(declare-fun var19 () String)
(declare-fun var20 () String)
(declare-fun var21 () String)
(declare-fun var22 () String)
(declare-fun var23 () String)
(declare-fun var24 () String)
(declare-fun var25 () String)
(declare-fun var26 () String)
(declare-fun var27 () String)
(declare-fun var28 () String)
(declare-fun var29 () String)
(declare-fun var30 () String)
(declare-fun var31 () String)
(declare-fun var32 () String)
(declare-fun var33 () String)
(declare-fun var34 () String)
(declare-fun var35 () String)
(declare-fun var36 () String)
(declare-fun var37 () String)
(declare-fun var38 () String)
(declare-fun var39 () String)
(declare-fun var40 () String)
(declare-fun var41 () String)
(declare-fun var42 () String)
(declare-fun var43 () String)
(declare-fun var44 () String)
(declare-fun var45 () String)
(declare-fun var46 () String)
(declare-fun var47 () String)
(declare-fun var48 () String)
(declare-fun var49 () String)
(declare-fun var50 () String)
(declare-fun var51 () String)
(declare-fun var52 () String)
(declare-fun var53 () String)
(declare-fun var54 () String)
(declare-fun var55 () String)
(declare-fun var56 () String)
(declare-fun var57 () String)
(declare-fun var58 () String)
(declare-fun var59 () String)
(declare-fun var60 () String)
(assert (= var0 (Concat var1 var2)))
(assert (= var2 (Concat var3 var4)))
(assert (= var4 (Concat var5 var6)))
(assert (= var6 (Concat var7 var8)))
(assert (= var8 (Concat var9 var10)))
(assert (= var10 (Concat var11 var12)))
(assert (= var12 (Concat var13 var14)))
(assert (= var14 (Concat var15 var16)))
(assert (= var16 (Concat var17 var18)))
(assert (= var18 (Concat var19 var20)))
(assert (= var20 (Concat var21 var22)))
(assert (= var22 (Concat var23 var24)))
(assert (= var24 (Concat var25 var26)))
(assert (= var26 (Concat var27 var28)))
(assert (= var28 (Concat var29 var30)))
(assert (= var30 (Concat var31 var32)))
(assert (= var32 (Concat var33 var34)))
(assert (= var34 (Concat var35 var36)))
(assert (= var36 (Concat var37 var38)))
(assert (= var38 (Concat var39 var40)))
(assert (= var40 (Concat var41 var42)))
(assert (= var42 (Concat var43 var44)))
(assert (= var44 (Concat var45 var46)))
(assert (= var46 (Concat var47 var48)))
(assert (= var48 (Concat var49 var50)))
(assert (= var50 (Concat var51 var52)))
(assert (= var52 (Concat var53 var54)))
(assert (= var54 (Concat var55 var56)))
(assert (= var56 (Concat var57 var58)))
(assert (= var58 (Concat var59 var60)))
(assert (= var0 "solution"))
(assert (= "B" (CharAt var34 471)))
(assert (= "w" (CharAt var16 948)))
(assert (= "j" (CharAt var46 70)))
(assert (= "[" (CharAt var58 742)))
(assert (= "&" (CharAt var3 749)))
(assert (= "C" (CharAt var34 673)))
(assert (= "/" (CharAt var12 785)))
(assert (= "`" (CharAt var34 266)))
(assert (= "a" (CharAt var35 162)))
(assert (= "7" (CharAt var13 778)))
(assert (= "Z" (CharAt var5 410)))
(assert (= "h" (CharAt var29 89)))
(assert (= "g" (CharAt var42 964)))
(assert (= "n" (CharAt var14 584)))
(assert (= "H" (CharAt var54 290)))
(assert (= "T" (CharAt var50 948)))
(assert (= "s" (CharAt var51 848)))
(assert (= "I" (CharAt var58 207)))
(assert (= "\\" (CharAt var52 707)))
(assert (= "?" (CharAt var29 34)))
(assert (= "=" (CharAt var40 967)))
(assert (= "S" (CharAt var49 588)))
(assert (= "5" (CharAt var10 311)))
(assert (= "E" (CharAt var10 827)))
(assert (= "1" (CharAt var40 841)))
(assert (= "." (CharAt var13 94)))
(assert (= ">" (CharAt var12 294)))
(assert (= "E" (CharAt var24 924)))
(assert (= "O" (CharAt var45 11)))
(assert (= ")" (CharAt var59 145)))
(assert (= "u" (CharAt var49 513)))
(assert (= "]" (CharAt var35 603)))
(assert (= "+" (CharAt var32 711)))
(assert (= "F" (CharAt var18 0)))
(assert (= "[" (CharAt var6 752)))
(assert (= "k" (CharAt var23 658)))
(assert (= "j" (CharAt var45 324)))
(assert (= "'" (CharAt var29 468)))
(assert (= "&" (CharAt var12 920)))
(assert (= ";" (CharAt var18 155)))
(assert (= "C" (CharAt var17 40)))
(assert (= "O" (CharAt var7 556)))
(assert (= "9" (CharAt var36 675)))
(assert (= "2" (CharAt var60 337)))
(assert (= "Y" (CharAt var9 247)))
(assert (= "Q" (CharAt var58 980)))
(assert (= ")" (CharAt var7 936)))
(assert (= "R" (CharAt var59 81)))
(assert (= "B" (CharAt var12 745)))
(assert (= "a" (CharAt var40 851)))
(assert (= "~" (CharAt var30 52)))
(assert (= "j" (CharAt var15 990)))
(assert (= "+" (CharAt var43 951)))
(assert (= "$" (CharAt var21 912)))
(assert (= "F" (CharAt var36 280)))
(assert (= "m" (CharAt var1 87)))
(assert (= "#" (CharAt var23 691)))
(assert (= "i" (CharAt var27 711)))
(assert (= "S" (CharAt var16 131)))
(assert (= "%" (CharAt var0 63)))
(assert (= "c" (CharAt var29 6)))
(assert (= "`" (CharAt var35 184)))
(assert (= "j" (CharAt var30 753)))
(assert (= "l" (CharAt var30 563)))
(assert (= "<" (CharAt var1 924)))
(assert (= "{" (CharAt var32 83)))
(assert (= "\"" (CharAt var46 766)))
(assert (= "I" (CharAt var21 18)))
(assert (= "m" (CharAt var35 464)))
(assert (= "S" (CharAt var22 257)))
(assert (= "z" (CharAt var19 562)))
(assert (= "Q" (CharAt var29 563)))
(assert (= "U" (CharAt var50 916)))
(assert (= "(" (CharAt var51 874)))
(assert (= "w" (CharAt var39 847)))
(assert (= "3" (CharAt var60 603)))
(assert (= "G" (CharAt var16 256)))
(assert (= "C" (CharAt var51 1)))
(assert (= "D" (CharAt var50 164)))
(assert (= "$" (CharAt var37 787)))
(assert (= "p" (CharAt var22 518)))
(assert (= "6" (CharAt var35 632)))
(assert (= "c" (CharAt var51 212)))
(assert (= "g" (CharAt var34 584)))
(assert (= "4" (CharAt var22 989)))
(assert (= "#" (CharAt var60 96)))
(assert (= "j" (CharAt var38 50)))
(assert (= "(" (CharAt var41 955)))
(assert (= "g" (CharAt var13 565)))
(assert (= "-" (CharAt var33 73)))
(assert (= "2" (CharAt var1 747)))
(assert (= "l" (CharAt var58 793)))
(assert (= "F" (CharAt var49 150)))
(assert (= "Y" (CharAt var6 222)))
(assert (= ">" (CharAt var0 357)))
(assert (= "B" (CharAt var36 388)))
(assert (= "h" (CharAt var9 73)))
(assert (= "x" (CharAt var43 994)))
(assert (= "X" (CharAt var20 244)))
(assert (= "=" (CharAt var16 336)))
(assert (= "7" (CharAt var13 485)))
(assert (= "]" (CharAt var51 220)))
(assert (= "n" (CharAt var1 659)))
(assert (= "x" (CharAt var58 875)))
(assert (= "U" (CharAt var51 880)))
(assert (= "g" (CharAt var36 748)))
(assert (= "h" (CharAt var42 802)))
(assert (= "}" (CharAt var57 426)))
(assert (= "-" (CharAt var16 996)))
(assert (= "q" (CharAt var39 991)))
(assert (= ":" (CharAt var28 531)))
(assert (= "O" (CharAt var3 361)))
(assert (= "k" (CharAt var8 478)))
(assert (= "+" (CharAt var9 729)))
(assert (= "u" (CharAt var31 85)))
(assert (= "Q" (CharAt var12 312)))
(assert (= "!" (CharAt var28 584)))
(assert (= "J" (CharAt var23 382)))
(assert (= "w" (CharAt var16 724)))
(assert (= "i" (CharAt var13 52)))
(assert (= "<" (CharAt var40 958)))
(assert (= "A" (CharAt var23 88)))
(assert (= "e" (CharAt var34 572)))
(assert (= "l" (CharAt var4 232)))
(assert (= "#" (CharAt var41 785)))
(assert (= "w" (CharAt var21 712)))
(assert (= "=" (CharAt var20 143)))
(assert (= "?" (CharAt var21 809)))
(assert (= "Z" (CharAt var40 792)))
(assert (= "a" (CharAt var9 92)))
(assert (= "?" (CharAt var39 292)))
(assert (= "f" (CharAt var48 396)))
(assert (= "~" (CharAt var45 81)))
(assert (= "\"" (CharAt var32 793)))
(assert (= "M" (CharAt var16 116)))
(assert (= ">" (CharAt var19 338)))
(assert (= "a" (CharAt var21 834)))
(assert (= "m" (CharAt var8 569)))
(assert (= "f" (CharAt var32 715)))
(assert (= "H" (CharAt var34 818)))
(assert (= "-" (CharAt var52 469)))
(assert (= "2" (CharAt var7 207)))
(assert (= "Y" (CharAt var15 451)))
(assert (= "u" (CharAt var37 106)))
(assert (= "%" (CharAt var26 796)))
(assert (= "J" (CharAt var11 2)))
(assert (= "(" (CharAt var28 228)))
(assert (= "w" (CharAt var2 184)))
(assert (= "-" (CharAt var29 480)))
(assert (= "S" (CharAt var3 602)))
(assert (= "q" (CharAt var36 10)))
(assert (= "," (CharAt var52 780)))
(assert (= "&" (CharAt var13 434)))
(assert (= "d" (CharAt var4 989)))
(assert (= "!" (CharAt var60 765)))
(assert (= "s" (CharAt var48 25)))
(assert (= "A" (CharAt var59 205)))
(assert (= "L" (CharAt var45 325)))
(assert (= "W" (CharAt var14 132)))
(assert (= ":" (CharAt var37 863)))
(assert (= "/" (CharAt var48 40)))
(check-sat)